language ESSENCE' 1.0
$ loaded file: carseqdata/csplib-instance-41
letting numcars=200
letting numclasses=24
letting numoptions=5
letting optMax=[1, 2, 1, 2, 1]
letting windowSize=[2, 3, 3, 5, 5]
letting numberPerClass=[4, 4, 16, 1, 4, 14, 2, 5, 9, 3, 2, 19, 31, 2, 9, 7, 1, 1, 2, 43, 2, 4, 12, 3]
letting optionsRequired=[[1, 0, 1, 1, 0], [1, 0, 0, 0, 1], [1, 1, 0, 0, 0], [1, 1, 1, 0, 1], [1, 1, 1, 0, 0], [0, 0, 0, 0, 1], [1, 1, 0, 0, 1], [1, 1, 0, 1, 0], [0, 1, 0, 1, 0], [0, 0, 1, 0, 1], [1, 0, 1, 0, 1], [0, 0, 1, 0, 0], [0, 0, 0, 1, 0], [0, 1, 1, 0, 1], [0, 0, 1, 1, 0], [1, 0, 1, 0, 0], [1, 0, 0, 1, 1], [0, 0, 1, 1, 1], [0, 0, 0, 1, 1], [0, 1, 0, 0, 0], [0, 1, 1, 0, 0], [0, 1, 0, 0, 1], [1, 0, 0, 0, 0], [1, 0, 0, 1, 0]]
